c generated by sgen
p cnf 109 228
-2 -3 -4 0
-1 -3 -4 0
-1 -2 -4 0
-1 -2 -3 0
-6 -7 -8 0
-5 -7 -8 0
-5 -6 -8 0
-5 -6 -7 0
-10 -11 -12 0
-9 -11 -12 0
-9 -10 -12 0
-9 -10 -11 0
-14 -15 -16 0
-13 -15 -16 0
-13 -14 -16 0
-13 -14 -15 0
-18 -19 -20 0
-17 -19 -20 0
-17 -18 -20 0
-17 -18 -19 0
-22 -23 -24 0
-21 -23 -24 0
-21 -22 -24 0
-21 -22 -23 0
-26 -27 -28 0
-25 -27 -28 0
-25 -26 -28 0
-25 -26 -27 0
-30 -31 -32 0
-29 -31 -32 0
-29 -30 -32 0
-29 -30 -31 0
-34 -35 -36 0
-33 -35 -36 0
-33 -34 -36 0
-33 -34 -35 0
-38 -39 -40 0
-37 -39 -40 0
-37 -38 -40 0
-37 -38 -39 0
-42 -43 -44 0
-41 -43 -44 0
-41 -42 -44 0
-41 -42 -43 0
-46 -47 -48 0
-45 -47 -48 0
-45 -46 -48 0
-45 -46 -47 0
-50 -51 -52 0
-49 -51 -52 0
-49 -50 -52 0
-49 -50 -51 0
-54 -55 -56 0
-53 -55 -56 0
-53 -54 -56 0
-53 -54 -55 0
-58 -59 -60 0
-57 -59 -60 0
-57 -58 -60 0
-57 -58 -59 0
-62 -63 -64 0
-61 -63 -64 0
-61 -62 -64 0
-61 -62 -63 0
-66 -67 -68 0
-65 -67 -68 0
-65 -66 -68 0
-65 -66 -67 0
-70 -71 -72 0
-69 -71 -72 0
-69 -70 -72 0
-69 -70 -71 0
-74 -75 -76 0
-73 -75 -76 0
-73 -74 -76 0
-73 -74 -75 0
-78 -79 -80 0
-77 -79 -80 0
-77 -78 -80 0
-77 -78 -79 0
-82 -83 -84 0
-81 -83 -84 0
-81 -82 -84 0
-81 -82 -83 0
-86 -87 -88 0
-85 -87 -88 0
-85 -86 -88 0
-85 -86 -87 0
-90 -91 -92 0
-89 -91 -92 0
-89 -90 -92 0
-89 -90 -91 0
-94 -95 -96 0
-93 -95 -96 0
-93 -94 -96 0
-93 -94 -95 0
-98 -99 -100 0
-97 -99 -100 0
-97 -98 -100 0
-97 -98 -99 0
-102 -103 -104 0
-101 -103 -104 0
-101 -102 -104 0
-101 -102 -103 0
-105 -106 -107 0
-105 -106 -108 0
-105 -106 -109 0
-105 -107 -108 0
-105 -107 -109 0
-105 -108 -109 0
-106 -107 -108 0
-106 -107 -109 0
-106 -108 -109 0
-107 -108 -109 0
24 8 48 0
10 8 48 0
10 24 48 0
10 24 8 0
5 32 79 0
44 32 79 0
44 5 79 0
44 5 32 0
109 7 101 0
26 7 101 0
26 109 101 0
26 109 7 0
100 29 45 0
105 29 45 0
105 100 45 0
105 100 29 0
39 30 88 0
82 30 88 0
82 39 88 0
82 39 30 0
6 95 13 0
67 95 13 0
67 6 13 0
67 6 95 0
83 54 28 0
49 54 28 0
49 83 28 0
49 83 54 0
43 97 53 0
102 97 53 0
102 43 53 0
102 43 97 0
2 66 27 0
42 66 27 0
42 2 27 0
42 2 66 0
25 93 85 0
33 93 85 0
33 25 85 0
33 25 93 0
63 15 81 0
73 15 81 0
73 63 81 0
73 63 15 0
56 78 60 0
14 78 60 0
14 56 60 0
14 56 78 0
94 71 75 0
47 71 75 0
47 94 75 0
47 94 71 0
19 9 87 0
89 9 87 0
89 19 87 0
89 19 9 0
61 59 20 0
70 59 20 0
70 61 20 0
70 61 59 0
107 90 62 0
103 90 62 0
103 107 62 0
103 107 90 0
55 22 38 0
69 22 38 0
69 55 38 0
69 55 22 0
21 68 31 0
64 68 31 0
64 21 31 0
64 21 68 0
35 11 106 0
1 11 106 0
1 35 106 0
1 35 11 0
76 58 41 0
37 58 41 0
37 76 41 0
37 76 58 0
98 12 80 0
74 12 80 0
74 98 80 0
74 98 12 0
108 52 65 0
40 52 65 0
40 108 65 0
40 108 52 0
104 50 72 0
86 50 72 0
86 104 72 0
86 104 50 0
18 99 16 0
34 99 16 0
34 18 16 0
34 18 99 0
4 51 96 0
17 51 96 0
17 4 96 0
17 4 51 0
57 91 23 0
3 91 23 0
3 57 23 0
3 57 91 0
36 46 77 0
36 46 84 0
36 46 92 0
36 77 84 0
36 77 92 0
36 84 92 0
46 77 84 0
46 77 92 0
46 84 92 0
77 84 92 0
